Route #1: 52 91 50
Route #2: 87 37 6 49 14
Route #3: 81 51 83
Route #4: 20 41 22 15
Route #5: 28 42 78 65 25
Route #6: 35 46 31
Route #7: 30 85 11 79
Route #8: 89 98 99 62 71
Route #9: 27 97 19
Route #10: 21 56 94 80
Route #11: 75 93
Route #12: 44 67 88 40
Route #13: 5 12 58
Route #14: 63 77 3
Route #15: 1 70 54
Route #16: 17 8
Route #17: 86 9 92
Route #18: 38 47 26 48 96 64 34
Route #19: 74 13 4
Route #20: 76 55 16 69
Route #21: 100 61 23
Route #22: 68 90 84 66
Route #23: 59 60 82
Route #24: 39 10 18
Route #25: 24 95 73 53 33 32
Route #26: 7 2 45 43 29 36 72 57
Cost 27591.0000
Time 16.0002